<number of tasks>
7

<cycle time>
8

<task times>
1 1
2 5
3 4
4 3
5 5
6 6
7 5

<precedence relations>
1,2
1,4
2,3
2,5
4,7
5,6

<setup times forward>
1,4:1
2,3:1
2,4:1
2,5:1
3,7:1
4,2:1
4,7:1
5,7:1
6,7:1
7,3:1
7,5:1
7,6:1

<setup times backward>
3,1:1
3,2:1
3,7:1
4,1:1
4,2:1
5,1:1
5,2:1
5,7:1
6,1:1
6,2:1
6,7:1

<end>

<optimal SALBP-1 value>
5


<rand seed>
467321153

